objective value:                 6.41471000036617e-07
x_1_2                                               1 	(obj:0)
x_2_1                                               1 	(obj:0)
x_3_1                                               1 	(obj:0)
x_4_1                                               1 	(obj:0)
x_5_1                                               1 	(obj:0)
x_6_1                                               1 	(obj:0)
x_7_1                                               1 	(obj:0)
x_8_2                                               1 	(obj:0)
x_9_1                                               1 	(obj:0)
x_10_1                                              1 	(obj:0)
x_11_1                                              1 	(obj:0)
x_12_2                                              1 	(obj:0)
x_13_1                                              1 	(obj:0)
x_14_1                                              1 	(obj:0)
x_15_1                                              1 	(obj:0)
x_16_1                                              1 	(obj:0)
x_17_1                                              1 	(obj:0)
x_18_2                                              1 	(obj:0)
x_19_2                                              1 	(obj:0)
x_20_2                                              1 	(obj:0)
ind_1                                               1 	(obj:0)
ind_2                                               1 	(obj:0)
abs_2_1                                             1 	(obj:0)
epsI                             6.41471000036617e-07 	(obj:1)
prodt_x_19_2_t_x_20_2_coh_2                         1 	(obj:0)
prodt_x_1_2_t_x_2_1_more_coh_1           2.3487380171 	(obj:0)
prodt_x_2_1_t_x_3_1_more_coh_1           6.0754692714 	(obj:0)
prodt_x_3_1_t_x_4_1_more_coh_1           4.6605272955 	(obj:0)
prodt_x_4_1_t_x_5_1_more_coh_1           4.1217927032 	(obj:0)
prodt_x_5_1_t_x_6_1_more_coh_1            5.689060965 	(obj:0)
prodt_x_6_1_t_x_7_1_more_coh_1           6.0432649464 	(obj:0)
prodt_x_7_1_t_x_9_1_more_coh_1           5.7810237024 	(obj:0)
prodt_x_9_1_t_x_14_1_more_coh_1          3.0715128084 	(obj:0)
prodt_x_10_1_t_x_11_1_more_coh_1          4.225137692 	(obj:0)
prodt_x_11_1_t_x_12_1_more_coh_1         2.9294073239 	(obj:0)
prodt_x_13_1_t_x_15_1_more_coh_1         2.6329109009 	(obj:0)
prodt_x_14_1_t_x_15_1_more_coh_1         1.0439567841 	(obj:0)
prodt_x_15_1_t_x_16_1_more_coh_1        1.14385591675 	(obj:0)
prodt_x_16_1_t_x_17_1_more_coh_1   0.0346328057999999 	(obj:0)
prodt_x_1_2_t_x_2_2_more_coh_2           3.3514437199 	(obj:0)
prodt_x_8_2_t_x_11_2_more_coh_2          2.5159593997 	(obj:0)
prodt_x_12_2_t_x_13_2_more_coh_2           2.06489502 	(obj:0)
prodt_x_18_2_t_x_19_2_more_coh_2          2.152460372 	(obj:0)
prodt_x_1_2_t_x_2_2_more_irrev1_2_1  0.00463829368526181 	(obj:0)
prodt_x_2_1_t_x_4_2_more_irrev1_2_1    0.947439131073134 	(obj:0)
prodt_x_3_1_t_x_4_2_more_irrev1_2_1     1.83796906574923 	(obj:0)
prodt_x_4_1_t_x_5_2_more_irrev1_2_1   -0.753111560000003 	(obj:0)
prodt_x_5_1_t_x_10_2_more_irrev1_2_1    -2.24585012853228 	(obj:0)
prodt_x_6_1_t_x_7_2_more_irrev1_2_1     1.44750909403127 	(obj:0)
prodt_x_7_1_t_x_8_2_more_irrev1_2_1    0.558631919999994 	(obj:0)
prodt_x_8_2_t_x_9_1_more_irrev1_2_1    0.491148972752404 	(obj:0)
prodt_x_9_1_t_x_11_2_more_irrev1_2_1      -2.248868299606 	(obj:0)
prodt_x_10_1_t_x_12_2_more_irrev1_2_1    -0.59782780102154 	(obj:0)
prodt_x_11_1_t_x_13_2_more_irrev1_2_1     1.03000389832412 	(obj:0)
prodt_x_12_2_t_x_13_1_more_irrev1_2_1          -0.17725732 	(obj:0)
prodt_x_13_1_t_x_14_2_more_irrev1_2_1        1.05159631778 	(obj:0)
prodt_x_14_1_t_x_16_2_more_irrev1_2_1    0.309505730686768 	(obj:0)
prodt_x_15_1_t_x_20_2_more_irrev1_2_1    -1.00878318241864 	(obj:0)
prodt_x_16_1_t_x_20_2_more_irrev1_2_1    0.679525363270989 	(obj:0)
prodt_x_17_1_t_x_20_2_more_irrev1_2_1     1.14080589749321 	(obj:0)
prodt_x_1_2_t_x_2_2_more_irrev2_2_1 -0.00463829368526358 	(obj:0)
prodt_x_2_1_t_x_4_2_more_irrev2_2_1   -0.947439131073134 	(obj:0)
prodt_x_3_1_t_x_4_2_more_irrev2_2_1    -1.83796906574923 	(obj:0)
prodt_x_4_1_t_x_5_2_more_irrev2_2_1    0.753111560000002 	(obj:0)
prodt_x_5_1_t_x_10_2_more_irrev2_2_1     2.24585012853228 	(obj:0)
prodt_x_6_1_t_x_7_2_more_irrev2_2_1    -1.44750909403127 	(obj:0)
prodt_x_7_1_t_x_8_2_more_irrev2_2_1   -0.558631919999994 	(obj:0)
prodt_x_8_2_t_x_9_1_more_irrev2_2_1   -0.491148972752402 	(obj:0)
prodt_x_9_1_t_x_11_2_more_irrev2_2_1       2.248868299606 	(obj:0)
prodt_x_10_1_t_x_12_2_more_irrev2_2_1     0.59782780102154 	(obj:0)
prodt_x_11_1_t_x_13_2_more_irrev2_2_1    -1.03000389832412 	(obj:0)
prodt_x_12_2_t_x_13_1_more_irrev2_2_1    0.177257320000001 	(obj:0)
prodt_x_13_1_t_x_14_2_more_irrev2_2_1       -1.05159631778 	(obj:0)
prodt_x_14_1_t_x_16_2_more_irrev2_2_1   -0.309505730686768 	(obj:0)
prodt_x_15_1_t_x_20_2_more_irrev2_2_1     1.00878318241864 	(obj:0)
prodt_x_16_1_t_x_20_2_more_irrev2_2_1   -0.679525363270989 	(obj:0)
prodt_x_17_1_t_x_20_2_more_irrev2_2_1    -1.14080589749321 	(obj:0)
SCIP Status        : solving was interrupted [node limit reached]
Total Time         :       2.15
  solving          :       2.15
  presolving       :       0.05 (included in solving)
  reading          :       0.00
  copying          :       0.00 (0 times copied the problem)
Original Problem   :
  Problem name     : ../instances/Pot4/Pot4_T_20B_alpha=12.txt.spa
  Variables        : 101 (100 binary, 0 integer, 0 implicit integer, 1 continuous)
  Constraints      : 193 initial, 193 maximal
  Objective sense  : maximize
Presolved Problem  :
  Problem name     : t_../instances/Pot4/Pot4_T_20B_alpha=12.txt.spa
  Variables        : 590 (92 binary, 0 integer, 16 implicit integer, 482 continuous)
  Constraints      : 2015 initial, 2021 maximal
Presolvers         :   ExecTime  SetupTime  Calls  FixedVars   AggrVars   ChgTypes  ChgBounds   AddHoles    DelCons    AddCons   ChgSides   ChgCoefs
  boundshift       :       0.00       0.00      0          0          0          0          0          0          0          0          0          0
  components       :       0.00       0.00      1          0          0          0          0          0          0          0          0          0
  convertinttobin  :       0.00       0.00      0          0          0          0          0          0          0          0          0          0
  domcol           :       0.00       0.00      1          0          0          0          0          0          0          0          0          0
  dualagg          :       0.00       0.00      0          0          0          0          0          0          0          0          0          0
  dualinfer        :       0.00       0.00      0          0          0          0          0          0          0          0          0          0
  gateextraction   :       0.00       0.00      3          0          0          0          0          0        108         34          0          0
  implfree         :       0.00       0.00      0          0          0          0          0          0          0          0          0          0
  implics          :       0.00       0.00      4          0          0          0          0          0          0          0          0          0
  inttobinary      :       0.00       0.00      0          0          0          0          0          0          0          0          0          0
  redvub           :       0.00       0.00      0          0          0          0          0          0          0          0          0          0
  stuffing         :       0.00       0.00      1          0          0          0          0          0          0          0          0          0
  trivial          :       0.00       0.00      7          0          0          0          0          0          0          0          0          0
  tworowbnd        :       0.00       0.00      0          0          0          0          0          0          0          0          0          0
  dualfix          :       0.00       0.00      7          4          0          0          0          0          0          0          0          0
  genvbounds       :       0.00       0.00      0          0          0          0          0          0          0          0          0          0
  probing          :       0.03       0.00      1          0          0          0          4          0          0          0          0          0
  pseudoobj        :       0.00       0.00      0          0          0          0          0          0          0          0          0          0
  varbound         :       0.00       0.00      9          0          0          0          0          0         28         28          0          0
  setppc           :       0.01       0.00     12          0          0          0          0          0          0          0          0          0
  and              :       0.00       0.00      4          0         12          0          0          0         12          0          0          0
  linear           :       0.00       0.00      9          3          1          0          4          0          7          0         12         12
  logicor          :       0.00       0.00      7          0          0          0          0          0          0          0          0          0
  bounddisjunction :       0.00       0.00      0          0          0          0          0          0          0          0          0          0
  quadratic        :       0.01       0.00      2          0          0          0          0          0          0       1915          0          0
  root node        :          -          -      -          1          -          -         11          -          -          -          -          -
Constraints        :     Number  MaxNumber  #Separate #Propagate    #EnfoLP    #EnfoPS     #Check   #ResProp    Cutoffs    DomReds       Cuts    Applied      Conss   Children
  integral         :          0          0          0          0        226          0         28          0          0       1349          0          0          5        146
  varbound         :        869        869         20       3258          6          0         25        372          5       2078          0          0          0          0
  setppc           :        110+       111         20       3241          6          0         11        298          9        218          0          0          0          0
  and              :         22         22         73       2518          0          0          9         26          1         67         48         27          0          0
  linear           :        979        979         20       3240          6          0          6        219         42       4379        884        524          0          0
  logicor          :         35+        40         17        567          0          0          0          1          1         16          1          1          0          0
  bounddisjunction :          0+        14          0        409          0          0          0          0          0          0          0          0          0          0
  countsols        :          0          0          0          0          0          0          3          0          0          0          0          0          0          0
Constraint Timings :  TotalTime  SetupTime   Separate  Propagate     EnfoLP     EnfoPS      Check    ResProp    SB-Prop
  integral         :       1.26       0.00       0.00       0.00       1.26       0.00       0.00       0.00       0.00
  varbound         :       0.03       0.00       0.00       0.03       0.00       0.00       0.00       0.00       0.00
  setppc           :       0.01       0.00       0.00       0.01       0.00       0.00       0.00       0.00       0.00
  and              :       0.00       0.00       0.00       0.00       0.00       0.00       0.00       0.00       0.00
  linear           :       0.09       0.00       0.00       0.06       0.00       0.00       0.00       0.00       0.03
  logicor          :       0.00       0.00       0.00       0.00       0.00       0.00       0.00       0.00       0.00
  bounddisjunction :       0.00       0.00       0.00       0.00       0.00       0.00       0.00       0.00       0.00
  countsols        :       0.00       0.00       0.00       0.00       0.00       0.00       0.00       0.00       0.00
Propagators        : #Propagate   #ResProp    Cutoffs    DomReds
  dualfix          :          2          0          0          0
  genvbounds       :          0          0          0          0
  obbt             :          0          0          0          0
  probing          :          0          0          0          0
  pseudoobj        :        697          0          0         10
  redcost          :        475          0          0          1
  rootredcost      :          2          0          0          0
  vbounds          :       3085          0          0          0
Propagator Timings :  TotalTime  SetupTime   Presolve  Propagate    ResProp    SB-Prop
  dualfix          :       0.00       0.00       0.00       0.00       0.00       0.00
  genvbounds       :       0.00       0.00       0.00       0.00       0.00       0.00
  obbt             :       0.00       0.00       0.00       0.00       0.00       0.00
  probing          :       0.03       0.00       0.03       0.00       0.00       0.00
  pseudoobj        :       0.00       0.00       0.00       0.00       0.00       0.00
  redcost          :       0.00       0.00       0.00       0.00       0.00       0.00
  rootredcost      :       0.00       0.00       0.00       0.00       0.00       0.00
  vbounds          :       0.00       0.00       0.00       0.00       0.00       0.00
Conflict Analysis  :       Time      Calls    Success    DomReds  Conflicts   Literals    Reconvs ReconvLits   LP Iters
  propagation      :       0.00         17         17          -        151       42.4          0        0.0          -
  infeasible LP    :       0.00          2          1          -         20       44.9          0        0.0          0
  bound exceed. LP :       0.00          0          0          -          0        0.0          0        0.0          0
  strong branching :       0.00          0          0          -          0        0.0          0        0.0          0
  pseudo solution  :       0.00          0          0          -          0        0.0          0        0.0          -
  applied globally :       0.00          -          -          0         20       16.6          -          -          -
  applied locally  :          -          -          -          0          0        0.0          -          -          -
Separators         :   ExecTime  SetupTime      Calls    Cutoffs    DomReds       Cuts    Applied      Conss
  cut pool         :       0.00                    19          -          -        586          -          -    (maximal pool size: 1086)
  cgmip            :       0.00       0.00          0          0          0          0          0          0
  clique           :       0.00       0.00         20          0          0         52         23          0
  closecuts        :       0.00       0.00          0          0          0          0          0          0
  cmir             :       0.03       0.00         10          0          0        640        312          0
  disjunctive      :       0.00       0.00          0          0          0          0          0          0
  eccuts           :       0.00       0.00          0          0          0          0          0          0
  flowcover        :       0.12       0.00         15          0          0        388         40          0
  gomory           :       0.03       0.00         10          0          0          1          1          0
  impliedbounds    :       0.00       0.00         20          0          0        583         89          0
  intobj           :       0.00       0.00          0          0          0          0          0          0
  mcf              :       0.00       0.00          1          0          0          0          0          0
  oddcycle         :       0.00       0.00          0          0          0          0          0          0
  rapidlearning    :       0.00       0.00          0          0          0          0          0          0
  strongcg         :       0.06       0.00         20          0          0          9          2          0
  zerohalf         :       0.00       0.00          0          0          0          0          0          0
Pricers            :   ExecTime  SetupTime      Calls       Vars
  problem variables:       0.00          -          0          0
Branching Rules    :   ExecTime  SetupTime   BranchLP  BranchExt   BranchPS    Cutoffs    DomReds       Cuts      Conss   Children
  allfullstrong    :       0.00       0.00          0          0          0          0          0          0          0          0
  cloud            :       0.00       0.00          0          0          0          0          0          0          0          0
  distribution     :       0.00       0.00          0          0          0          0          0          0          0          0
  fullstrong       :       0.00       0.00          0          0          0          0          0          0          0          0
  inference        :       0.00       0.00          0          0          0          0          0          0          0          0
  leastinf         :       0.00       0.00          0          0          0          0          0          0          0          0
  mostinf          :       0.00       0.00          0          0          0          0          0          0          0          0
  multaggr         :       0.00       0.00          0          0          0          0          0          0          0          0
  nodereopt        :       0.00       0.00          0          0          0          0          0          0          0          0
  pscost           :       0.00       0.00          0          0          0          0          0          0          0          0
  random           :       0.00       0.00          0          0          0          0          0          0          0          0
  relpscost        :       1.26       0.00        220          0          0          0       1349          0          5        146
Primal Heuristics  :   ExecTime  SetupTime      Calls      Found       Best
  LP solutions     :       0.00          -          -          0          -
  pseudo solutions :       0.00          -          -          0          -
  strong branching :       0.00          -          -          0          -
  SpaGreedy        :       0.00       0.00          0          0          0
  actconsdiving    :       0.00       0.00          0          0          0
  bound            :       0.00       0.00          0          0          0
  clique           :       0.00       0.00          0          0          0
  coefdiving       :       0.01       0.00          1          1          1
  crossover        :       0.00       0.00          0          0          0
  dins             :       0.00       0.00          0          0          0
  distributiondivin:       0.00       0.00          0          0          0
  dualval          :       0.00       0.00          0          0          0
  feaspump         :       0.03       0.00          1          0          0
  fixandinfer      :       0.00       0.00          0          0          0
  fracdiving       :       0.00       0.00          0          0          0
  guideddiving     :       0.00       0.00          0          0          0
  indicator        :       0.00       0.00          0          0          0
  intdiving        :       0.00       0.00          0          0          0
  intshifting      :       0.00       0.00          1          0          0
  linesearchdiving :       0.00       0.00          0          0          0
  localbranching   :       0.00       0.00          0          0          0
  mutation         :       0.00       0.00          0          0          0
  nlpdiving        :       0.00       0.00          0          0          0
  objpscostdiving  :       0.00       0.00          0          0          0
  octane           :       0.00       0.00          0          0          0
  ofins            :       0.00       0.00          0          0          0
  oneopt           :       0.00       0.00          2          0          0
  proximity        :       0.00       0.00          0          0          0
  pscostdiving     :       0.01       0.00          1          0          0
  randrounding     :       0.10       0.00         28          0          0
  rens             :       0.00       0.00          0          0          0
  reoptsols        :       0.00       0.00          0          0          0
  rins             :       0.00       0.00          0          0          0
  rootsoldiving    :       0.00       0.00          0          0          0
  rounding         :       0.00       0.00        162          0          0
  shiftandpropagate:       0.00       0.00          1          1          1
  shifting         :       0.01       0.00         31          0          0
  simplerounding   :       0.00       0.00          0          0          0
  subnlp           :       0.00       0.00          0          0          0
  trivial          :       0.00       0.00          2          0          0
  trivialnegation  :       0.00       0.00          0          0          0
  trysol           :       0.00       0.00          0          0          0
  twoopt           :       0.00       0.00          0          0          0
  undercover       :       0.00       0.00          1          0          0
  vbounds          :       0.00       0.00          0          0          0
  veclendiving     :       0.00       0.00          0          0          0
  zeroobj          :       0.00       0.00          0          0          0
  zirounding       :       0.01       0.00         73          0          0
  other solutions  :          -          -          -          0          -
Diving Statistics  :      Calls      Nodes   LP Iters Backtracks   MinDepth   MaxDepth   AvgDepth  NLeafSols  MinSolDpt  MaxSolDpt  AvgSolDpt
  actconsdiving    :          0          -          -          -          -          -          -          -          -          -          -
  coefdiving       :          1         12         76          0         22         22       22.0          -          -          -          -
  distributiondivin:          0          -          -          -          -          -          -          -          -          -          -
  fracdiving       :          0          -          -          -          -          -          -          -          -          -          -
  guideddiving     :          0          -          -          -          -          -          -          -          -          -          -
  linesearchdiving :          0          -          -          -          -          -          -          -          -          -          -
  pscostdiving     :          1         20        252          2         33         33       33.0          -          -          -          -
  veclendiving     :          0          -          -          -          -          -          -          -          -          -          -
LP                 :       Time      Calls Iterations  Iter/call   Iter/sec  Time-0-It Calls-0-It
  primal LP        :       0.00          3          0       0.00          -       0.00          3
  dual LP          :       0.36        280      10729      47.47   29802.78       0.01         54
  lex dual LP      :       0.00          0          0       0.00          -
  barrier LP       :       0.00          0          0       0.00          -       0.00          0
  diving/probing LP:       0.04         13        872      67.08   21800.00
  strong branching :       1.15        351      37992     108.24   33036.52
    (at root node) :          -         42       7212     171.71          -
  conflict analysis:       0.00          0          0       0.00          -
B&B Tree           :
  number of runs   :          1
  nodes            :        100 (73 internal, 27 leaves)
  nodes (total)    :        100 (73 internal, 27 leaves)
  nodes left       :         47
  max depth        :         26
  max depth (total):         26
  backtracks       :         15 (15.0%)
  delayed cutoffs  :          0
  repropagations   :          4 (0 domain reductions, 0 cutoffs)
  avg switch length:       2.15
  switching time   :       0.01
Root Node          :
  First LP value   : +3.00000000000000e+00
  First LP Iters   :        381 (38100.00 Iter/sec)
  First LP Time    :       0.01
  Final Dual Bound : +8.83601055789867e-01
  Final Root Iters :       5747
Solution           :
  Solutions found  :          2 (2 improvements)
  First Solution   : +0.00000000000000e+00   (in run 1, after 1 nodes, 0.05 seconds, depth 17, found by <shiftandpropagate>)
  Gap First Sol.   :   infinite
  Gap Last Sol.    : 137745964.24 %
  Primal Bound     : +6.41471000036617e-07   (in run 1, after 10 nodes, 1.06 seconds, depth 22, found by <coefdiving>)
  Dual Bound       : +4.67519185000009e-03
  Gap              :  728723.57 %
  Avg. Gap         :     100.00 % (215.00 primal-dual integral)
